c https://steinlib.zib.de/showset.php?ES60FST
p edge 113 142
e 21 28
e 40 61
e 17 23
e 41 61
e 41 62
e 61 63
e 62 63
e 38 64
e 38 63
e 28 66
e 64 65
e 64 67
e 23 65
e 44 66
e 37 46
e 37 44
e 67 68
e 67 69
e 68 70
e 15 68
e 15 65
e 46 71
e 54 69
e 54 74
e 54 62
e 69 70
e 69 73
e 60 72
e 48 66
e 25 71
e 25 32
e 32 36
e 42 70
e 11 72
e 18 73
e 18 42
e 8 77
e 8 72
e 57 71
e 74 75
e 75 76
e 27 75
e 27 73
e 14 76
e 14 79
e 14 74
e 51 81
e 51 57
e 35 77
e 77 78
e 26 79
e 26 78
e 79 80
e 49 83
e 49 78
e 1 84
e 1 80
e 1 76
e 2 50
e 81 89
e 7 82
e 7 81
e 50 87
e 82 90
e 47 88
e 47 82
e 10 83
e 5 84
e 5 85
e 5 80
e 84 85
e 85 86
e 86 87
e 59 87
e 9 88
e 9 10
e 24 58
e 24 86
e 43 89
e 43 91
e 89 90
e 89 93
e 30 95
e 30 88
e 29 91
e 29 34
e 29 43
e 91 92
e 92 93
e 93 94
e 94 98
e 6 95
e 6 99
e 6 94
e 6 90
e 58 97
e 58 96
e 19 96
e 19 83
e 13 97
e 13 102
e 13 96
e 97 103
e 98 99
e 98 105
e 55 106
e 55 99
e 55 95
e 33 52
e 16 100
e 16 19
e 100 101
e 100 109
e 101 102
e 101 110
e 102 103
e 103 104
e 52 104
e 4 105
e 4 107
e 4 92
e 105 107
e 45 108
e 45 106
e 22 108
e 22 107
e 22 106
e 109 110
e 109 111
e 31 110
e 31 104
e 20 111
e 20 113
e 20 108
e 111 112
e 3 107
e 53 112
e 53 110
e 39 113
e 39 112
e 56 113
e 12 56
